results_rootrelaxation/bin012_080_048.srr.sol
solution status: optimal solution found
objective value:                     18.1228070175439
_var694_                            0.228070175438596 	(obj:0)
_var700_                            0.210526315789474 	(obj:1)
_var702_                            0.210526315789473 	(obj:1)
_var713_                           0.0350877192982458 	(obj:1)
_var737_                            0.473684210526316 	(obj:0)
_var753_                           0.0877192982456141 	(obj:2)
_var764_                            0.684210526315789 	(obj:2)
_var776_                            0.210526315789474 	(obj:2)
_var780_                           0.0350877192982459 	(obj:2)
_var791_                             0.12280701754386 	(obj:1)
_var800_                           0.0350877192982455 	(obj:2)
_var803_                            0.070175438596491 	(obj:1)
_var807_                           0.0877192982456139 	(obj:5)
_var810_                            0.456140350877193 	(obj:2)
_var819_                           0.0877192982456139 	(obj:1)
_var823_                             0.43859649122807 	(obj:1)
_var834_                           0.0526315789473683 	(obj:1)
_var835_                            0.754385964912281 	(obj:2)
_var837_                           0.0350877192982455 	(obj:1)
_var845_                           0.0350877192982457 	(obj:2)
_var847_                            0.526315789473685 	(obj:1)
_var848_                            0.105263157894737 	(obj:1)
_var849_                           0.0175438596491227 	(obj:2)
_var852_                            0.473684210526316 	(obj:2)
_var853_                            0.280701754385965 	(obj:1)
_var855_                           0.0175438596491225 	(obj:2)
_var856_                           0.0526315789473683 	(obj:0)
_var858_                            0.228070175438597 	(obj:1)
_var859_                            0.298245614035088 	(obj:2)
_var864_                             0.56140350877193 	(obj:1)
_var872_                            0.140350877192982 	(obj:2)
_var873_                             0.31578947368421 	(obj:1)
_var878_                            0.403508771929824 	(obj:1)
_var880_                           0.0526315789473685 	(obj:1)
_var886_                           0.0877192982456141 	(obj:3)
_var892_                            0.210526315789473 	(obj:4)
_var893_                           0.0526315789473683 	(obj:3)
_var895_                           0.0526315789473682 	(obj:2)
_var897_                            0.175438596491228 	(obj:2)
_var900_                            0.175438596491228 	(obj:2)
_var902_                            0.228070175438596 	(obj:2)
_var904_                           0.0175438596491227 	(obj:4)
_var909_                            0.210526315789474 	(obj:0)
_var911_                            0.456140350877194 	(obj:2)
_var912_                            0.157894736842105 	(obj:3)
_var916_                             0.24561403508772 	(obj:4)
_var918_                            0.210526315789474 	(obj:1)
_var919_                           0.0350877192982456 	(obj:2)
_var922_                            0.140350877192983 	(obj:2)
_var926_                           0.0175438596491227 	(obj:3)
_var927_                            0.228070175438597 	(obj:3)
_var928_                             0.24561403508772 	(obj:2)
_var929_                            0.140350877192983 	(obj:3)
_var932_                           0.0350877192982448 	(obj:2)
_var933_                           0.0526315789473683 	(obj:4)
