results_rootrelaxation/bin012_080_048.srr.log
SCIP version 8.0.3.5 [precision: 8 byte] [memory: block] [mode: optimized] [LP solver: Soplex 6.0.1.3] [GitHash: 438792519e]
Copyright (c) 2002-2023 Zuse Institute Berlin (ZIB)

External libraries: 
  Readline 8.1         GNU library for command line editing (gnu.org/s/readline)
  Soplex 6.0.1.3       Linear Programming Solver developed at Zuse Institute Berlin (soplex.zib.de) [GitHash: 713be0fe]
  CppAD 20180000.0     Algorithmic Differentiation of C++ algorithms developed by B. Bell (github.com/coin-or/CppAD)
  ZLIB 1.2.11          General purpose compression library by J. Gailly and M. Adler (zlib.net)
  bliss 0.77           Computing Graph Automorphism Groups by T. Junttila and P. Kaski (www.tcs.hut.fi/Software/bliss/)

user parameter file <scip.set> not found - using default parameters

srr/relaxation = TRUE

read problem <instances/bin012_080_048.srr>
============

Original problem: 
original problem has 0 variables (0 bin, 0 int, 0 impl, 0 cont) and 77 constraints

presolving:
presolving (1 rounds: 1 fast, 1 medium, 1 exhaustive):
 0 deleted vars, 0 deleted constraints, 0 added constraints, 0 tightened bounds, 0 added holes, 0 changed sides, 0 changed coefficients
 0 implications, 0 cliques
presolved problem has 0 variables (0 bin, 0 int, 0 impl, 0 cont) and 77 constraints
     77 constraints of type <linear>
Presolving Time: 0.00

 time | node  | left  |LP iter|LP it/n|mem/heur|mdpt |vars |cons |rows |cuts |sepa|confs|strbr|  dualbound   | primalbound  |  gap   | compl. 
  0.0s|     1 |     0 |     1 |     - |   710k |   0 |   1 |  77 |  77 |   0 |  0 |   0 |   0 |      --      |      --      |    Inf | unknown
r 0.1s|     1 |     0 |   797 |     - |simplero|   0 | 674 |  77 |  77 |   0 |  0 |   0 |   0 |      --      | 3.701828e+01 |    Inf | unknown
r 0.1s|     1 |     0 |   840 |     - |simplero|   0 | 685 |  77 |  77 |   0 |  0 |   0 |   0 |      --      | 3.617350e+01 |    Inf | unknown
r 0.1s|     1 |     0 |   907 |     - |simplero|   0 | 696 |  77 |  77 |   0 |  0 |   0 |   0 |      --      | 3.363234e+01 |    Inf | unknown
r 0.1s|     1 |     0 |   960 |     - |simplero|   0 | 707 |  77 |  77 |   0 |  0 |   0 |   0 |      --      | 3.230702e+01 |    Inf | unknown
r 0.1s|     1 |     0 |  1028 |     - |simplero|   0 | 718 |  77 |  77 |   0 |  0 |   0 |   0 |      --      | 2.964747e+01 |    Inf | unknown
r 0.1s|     1 |     0 |  1071 |     - |simplero|   0 | 729 |  77 |  77 |   0 |  0 |   0 |   0 |      --      | 2.889964e+01 |    Inf | unknown
r 0.1s|     1 |     0 |  1130 |     - |simplero|   0 | 740 |  77 |  77 |   0 |  0 |   0 |   0 |      --      | 2.652006e+01 |    Inf | unknown
r 0.1s|     1 |     0 |  1190 |     - |simplero|   0 | 751 |  77 |  77 |   0 |  0 |   0 |   0 |      --      | 2.526418e+01 |    Inf | unknown
r 0.1s|     1 |     0 |  1234 |     - |simplero|   0 | 762 |  77 |  77 |   0 |  0 |   0 |   0 |      --      | 2.430088e+01 |    Inf | unknown
r 0.1s|     1 |     0 |  1264 |     - |simplero|   0 | 762 |  77 |  77 |   0 |  0 |   0 |   0 |      --      | 2.390091e+01 |    Inf | unknown
r 0.1s|     1 |     0 |  1344 |     - |simplero|   0 | 773 |  77 |  77 |   0 |  0 |   0 |   0 |      --      | 2.271173e+01 |    Inf | unknown
r 0.1s|     1 |     0 |  1347 |     - |simplero|   0 | 773 |  77 |  77 |   0 |  0 |   0 |   0 |      --      | 2.269858e+01 |    Inf | unknown
r 0.1s|     1 |     0 |  1348 |     - |simplero|   0 | 773 |  77 |  77 |   0 |  0 |   0 |   0 |      --      | 2.269705e+01 |    Inf | unknown
r 0.1s|     1 |     0 |  1398 |     - |simplero|   0 | 784 |  77 |  77 |   0 |  0 |   0 |   0 |      --      | 2.178822e+01 |    Inf | unknown
 time | node  | left  |LP iter|LP it/n|mem/heur|mdpt |vars |cons |rows |cuts |sepa|confs|strbr|  dualbound   | primalbound  |  gap   | compl. 
r 0.1s|     1 |     0 |  1407 |     - |simplero|   0 | 784 |  77 |  77 |   0 |  0 |   0 |   0 |      --      | 2.175096e+01 |    Inf | unknown
r 0.1s|     1 |     0 |  1411 |     - |simplero|   0 | 784 |  77 |  77 |   0 |  0 |   0 |   0 |      --      | 2.174927e+01 |    Inf | unknown
r 0.1s|     1 |     0 |  1413 |     - |simplero|   0 | 784 |  77 |  77 |   0 |  0 |   0 |   0 |      --      | 2.174907e+01 |    Inf | unknown
r 0.1s|     1 |     0 |  1446 |     - |simplero|   0 | 795 |  77 |  77 |   0 |  0 |   0 |   0 |      --      | 2.113995e+01 |    Inf | unknown
r 0.1s|     1 |     0 |  1471 |     - |simplero|   0 | 795 |  77 |  77 |   0 |  0 |   0 |   0 |      --      | 2.104380e+01 |    Inf | unknown
r 0.1s|     1 |     0 |  1480 |     - |simplero|   0 | 795 |  77 |  77 |   0 |  0 |   0 |   0 |      --      | 2.102235e+01 |    Inf | unknown
r 0.1s|     1 |     0 |  1504 |     - |simplero|   0 | 806 |  77 |  77 |   0 |  0 |   0 |   0 |      --      | 2.070662e+01 |    Inf | unknown
r 0.1s|     1 |     0 |  1533 |     - |simplero|   0 | 806 |  77 |  77 |   0 |  0 |   0 |   0 |      --      | 2.035135e+01 |    Inf | unknown
r 0.1s|     1 |     0 |  1552 |     - |simplero|   0 | 806 |  77 |  77 |   0 |  0 |   0 |   0 |      --      | 2.022755e+01 |    Inf | unknown
r 0.1s|     1 |     0 |  1591 |     - |simplero|   0 | 817 |  77 |  77 |   0 |  0 |   0 |   0 |      --      | 1.973726e+01 |    Inf | unknown
r 0.1s|     1 |     0 |  1595 |     - |simplero|   0 | 817 |  77 |  77 |   0 |  0 |   0 |   0 |      --      | 1.973005e+01 |    Inf | unknown
r 0.1s|     1 |     0 |  1630 |     - |simplero|   0 | 828 |  77 |  77 |   0 |  0 |   0 |   0 |      --      | 1.934285e+01 |    Inf | unknown
r 0.1s|     1 |     0 |  1631 |     - |simplero|   0 | 828 |  77 |  77 |   0 |  0 |   0 |   0 |      --      | 1.934184e+01 |    Inf | unknown
r 0.1s|     1 |     0 |  1632 |     - |simplero|   0 | 828 |  77 |  77 |   0 |  0 |   0 |   0 |      --      | 1.934183e+01 |    Inf | unknown
r 0.1s|     1 |     0 |  1654 |     - |simplero|   0 | 839 |  77 |  77 |   0 |  0 |   0 |   0 |      --      | 1.905450e+01 |    Inf | unknown
 time | node  | left  |LP iter|LP it/n|mem/heur|mdpt |vars |cons |rows |cuts |sepa|confs|strbr|  dualbound   | primalbound  |  gap   | compl. 
r 0.1s|     1 |     0 |  1662 |     - |simplero|   0 | 839 |  77 |  77 |   0 |  0 |   0 |   0 |      --      | 1.903740e+01 |    Inf | unknown
r 0.1s|     1 |     0 |  1696 |     - |simplero|   0 | 849 |  77 |  77 |   0 |  0 |   0 |   0 |      --      | 1.890909e+01 |    Inf | unknown
r 0.1s|     1 |     0 |  1703 |     - |simplero|   0 | 849 |  77 |  77 |   0 |  0 |   0 |   0 |      --      | 1.890759e+01 |    Inf | unknown
r 0.1s|     1 |     0 |  1727 |     - |simplero|   0 | 859 |  77 |  77 |   0 |  0 |   0 |   0 |      --      | 1.873827e+01 |    Inf | unknown
r 0.1s|     1 |     0 |  1747 |     - |simplero|   0 | 859 |  77 |  77 |   0 |  0 |   0 |   0 |      --      | 1.867683e+01 |    Inf | unknown
  0.1s|     1 |     0 |  1753 |     - |  4126k |   0 | 859 |  77 |  77 |   0 |  0 |   0 |   0 |      --      | 1.867683e+01 |    Inf | unknown
r 0.1s|     1 |     0 |  1753 |     - |simplero|   0 | 859 |  77 |  77 |   0 |  0 |   0 |   0 |      --      | 1.867450e+01 |    Inf | unknown
r 0.1s|     1 |     0 |  1771 |     - |simplero|   0 | 870 |  77 |  77 |   0 |  0 |   0 |   0 |      --      | 1.854762e+01 |    Inf | unknown
r 0.1s|     1 |     0 |  1800 |     - |simplero|   0 | 881 |  77 |  77 |   0 |  0 |   0 |   0 |      --      | 1.841379e+01 |    Inf | unknown
r 0.1s|     1 |     0 |  1805 |     - |simplero|   0 | 881 |  77 |  77 |   0 |  0 |   0 |   0 |      --      | 1.840326e+01 |    Inf | unknown
r 0.1s|     1 |     0 |  1811 |     - |simplero|   0 | 881 |  77 |  77 |   0 |  0 |   0 |   0 |      --      | 1.839730e+01 |    Inf | unknown
r 0.1s|     1 |     0 |  1844 |     - |simplero|   0 | 891 |  77 |  77 |   0 |  0 |   0 |   0 |      --      | 1.832000e+01 |    Inf | unknown
r 0.1s|     1 |     0 |  1852 |     - |simplero|   0 | 891 |  77 |  77 |   0 |  0 |   0 |   0 |      --      | 1.831894e+01 |    Inf | unknown
r 0.1s|     1 |     0 |  1871 |     - |simplero|   0 | 898 |  77 |  77 |   0 |  0 |   0 |   0 |      --      | 1.824332e+01 |    Inf | unknown
r 0.1s|     1 |     0 |  1880 |     - |simplero|   0 | 903 |  77 |  77 |   0 |  0 |   0 |   0 |      --      | 1.823226e+01 |    Inf | unknown
 time | node  | left  |LP iter|LP it/n|mem/heur|mdpt |vars |cons |rows |cuts |sepa|confs|strbr|  dualbound   | primalbound  |  gap   | compl. 
r 0.1s|     1 |     0 |  1891 |     - |simplero|   0 | 911 |  77 |  77 |   0 |  0 |   0 |   0 |      --      | 1.821429e+01 |    Inf | unknown
r 0.1s|     1 |     0 |  1907 |     - |simplero|   0 | 915 |  77 |  77 |   0 |  0 |   0 |   0 |      --      | 1.819706e+01 |    Inf | unknown
r 0.1s|     1 |     0 |  1925 |     - |simplero|   0 | 919 |  77 |  77 |   0 |  0 |   0 |   0 |      --      | 1.816000e+01 |    Inf | unknown
r 0.1s|     1 |     0 |  1928 |     - |simplero|   0 | 919 |  77 |  77 |   0 |  0 |   0 |   0 |      --      | 1.815942e+01 |    Inf | unknown
r 0.1s|     1 |     0 |  1940 |     - |simplero|   0 | 926 |  77 |  77 |   0 |  0 |   0 |   0 |      --      | 1.814815e+01 |    Inf | unknown
r 0.1s|     1 |     0 |  1948 |     - |simplero|   0 | 929 |  77 |  77 |   0 |  0 |   0 |   0 |      --      | 1.813551e+01 |    Inf | unknown
r 0.1s|     1 |     0 |  1951 |     - |simplero|   0 | 929 |  77 |  77 |   0 |  0 |   0 |   0 |      --      | 1.813462e+01 |    Inf | unknown
r 0.1s|     1 |     0 |  1963 |     - |simplero|   0 | 932 |  77 |  77 |   0 |  0 |   0 |   0 |      --      | 1.812343e+01 |    Inf | unknown
r 0.1s|     1 |     0 |  1966 |     - |simplero|   0 | 934 |  77 |  77 |   0 |  0 |   0 |   0 |      --      | 1.812281e+01 |    Inf | unknown
  0.1s|     1 |     0 |  1966 |     - |  4457k |   0 | 934 |  77 |  77 |   0 |  0 |   0 |   0 | 1.812281e+01 | 1.812281e+01 |   0.00%| unknown
  0.1s|     1 |     0 |  1966 |     - |  4457k |   0 | 934 |  77 |  77 |   0 |  0 |   0 |   0 | 1.812281e+01 | 1.812281e+01 |   0.00%| unknown

SCIP Status        : problem is solved [optimal solution found]
Solving Time (sec) : 0.13
Solving Nodes      : 1
Primal Bound       : +1.81228070175439e+01 (52 solutions)
Dual Bound         : +1.81228070175439e+01
Gap                : 0.00 %

written transformed problem to file <results_rootrelaxation/bin012_080_048.srr.lp>
written transformed problem to file <results_rootrelaxation/bin012_080_048.srr.cip>

written solution information to file <results_rootrelaxation/bin012_080_048.srr.sol>



